system                                  
   1.00000000000000     
     5.0258869981796872    0.0000000000000000    0.0000000000000000
     0.0000000000000000    5.2749954666937553    0.0000000000000000
     0.0000000000000000   -0.0000000000000000   24.0305279391912130
   O    Cu   Sr   Bi
    24     4     8     8
Direct
 -0.0000000000000000  0.2339064365785705  0.1448762669718489
 -0.0000000000000000  0.7339064365785705  0.6448762669718489
  0.0000000000000000  0.7660935634214295  0.8551237330281511
  0.0000000000000000  0.2660935634214296  0.3551237330281512
  0.5000000000000000  0.7660935634214295  0.1448762669718489
  0.5000000000000000  0.2660935634214296  0.6448762669718489
  0.5000000000000000  0.2339064365785705  0.8551237330281511
  0.5000000000000000  0.7339064365785705  0.3551237330281512
  0.5000000000000000  0.3335101108693808  0.0619389923026483
  0.5000000000000000  0.8335101108693809  0.5619389923026483
  0.5000000000000000  0.6664898891306191  0.9380610076973517
  0.5000000000000000  0.1664898891306191  0.4380610076973518
  0.0000000000000000  0.6664898891306191  0.0619389923026483
  0.0000000000000000  0.1664898891306191  0.5619389923026483
  0.0000000000000000  0.3335101108693808  0.9380610076973517
 -0.0000000000000000  0.8335101108693809  0.4380610076973518
  0.7500000000000000  0.5000000000000000  0.2494011400876285
  0.7500000000000000  0.0000000000000000  0.7494011400876286
  0.7500000000000000  0.5000000000000000  0.7505988599123714
  0.7500000000000000 -0.0000000000000000  0.2505988599123715
  0.2500000000000000  0.5000000000000000  0.7505988599123714
  0.2500000000000000 -0.0000000000000000  0.2505988599123715
  0.2500000000000000  0.5000000000000000  0.2494011400876285
  0.2500000000000000  0.0000000000000000  0.7494011400876286
  0.5000000000000000  0.7500000000000000  0.2500000000000000
  0.5000000000000000  0.2500000000000000  0.7500000000000000
 -0.0000000000000000  0.2500000000000000  0.2500000000000000
 -0.0000000000000000  0.7500000000000000  0.7500000000000000
  0.5000000000000000  0.2491507346314027  0.1768279391057188
  0.5000000000000000  0.7491507346314027  0.6768279391057190
  0.5000000000000000  0.7508492653685973  0.8231720608942810
  0.5000000000000000  0.2508492653685975  0.3231720608942811
  0.0000000000000000  0.7508492653685973  0.1768279391057188
  0.0000000000000000  0.2508492653685975  0.6768279391057190
 -0.0000000000000000  0.2491507346314027  0.8231720608942810
  0.0000000000000000  0.7491507346314027  0.3231720608942811
  0.0000000000000000  0.2602449104450213  0.0601468145462098
  0.0000000000000000  0.7602449104450213  0.5601468145462098
  0.0000000000000000  0.7397550895549787  0.9398531854537902
 -0.0000000000000000  0.2397550895549786  0.4398531854537902
  0.5000000000000000  0.7397550895549787  0.0601468145462098
  0.5000000000000000  0.2397550895549786  0.5601468145462098
  0.5000000000000000  0.2602449104450213  0.9398531854537902
  0.5000000000000000  0.7602449104450213  0.4398531854537902
 
  0.00000000E+00  0.00000000E+00  0.00000000E+00
  0.00000000E+00  0.00000000E+00  0.00000000E+00
  0.00000000E+00  0.00000000E+00  0.00000000E+00
  0.00000000E+00  0.00000000E+00  0.00000000E+00
  0.00000000E+00  0.00000000E+00  0.00000000E+00
  0.00000000E+00  0.00000000E+00  0.00000000E+00
  0.00000000E+00  0.00000000E+00  0.00000000E+00
  0.00000000E+00  0.00000000E+00  0.00000000E+00
  0.00000000E+00  0.00000000E+00  0.00000000E+00
  0.00000000E+00  0.00000000E+00  0.00000000E+00
  0.00000000E+00  0.00000000E+00  0.00000000E+00
  0.00000000E+00  0.00000000E+00  0.00000000E+00
  0.00000000E+00  0.00000000E+00  0.00000000E+00
  0.00000000E+00  0.00000000E+00  0.00000000E+00
  0.00000000E+00  0.00000000E+00  0.00000000E+00
  0.00000000E+00  0.00000000E+00  0.00000000E+00
  0.00000000E+00  0.00000000E+00  0.00000000E+00
  0.00000000E+00  0.00000000E+00  0.00000000E+00
  0.00000000E+00  0.00000000E+00  0.00000000E+00
  0.00000000E+00  0.00000000E+00  0.00000000E+00
  0.00000000E+00  0.00000000E+00  0.00000000E+00
  0.00000000E+00  0.00000000E+00  0.00000000E+00
  0.00000000E+00  0.00000000E+00  0.00000000E+00
  0.00000000E+00  0.00000000E+00  0.00000000E+00
  0.00000000E+00  0.00000000E+00  0.00000000E+00
  0.00000000E+00  0.00000000E+00  0.00000000E+00
  0.00000000E+00  0.00000000E+00  0.00000000E+00
  0.00000000E+00  0.00000000E+00  0.00000000E+00
  0.00000000E+00  0.00000000E+00  0.00000000E+00
  0.00000000E+00  0.00000000E+00  0.00000000E+00
  0.00000000E+00  0.00000000E+00  0.00000000E+00
  0.00000000E+00  0.00000000E+00  0.00000000E+00
  0.00000000E+00  0.00000000E+00  0.00000000E+00
  0.00000000E+00  0.00000000E+00  0.00000000E+00
  0.00000000E+00  0.00000000E+00  0.00000000E+00
  0.00000000E+00  0.00000000E+00  0.00000000E+00
  0.00000000E+00  0.00000000E+00  0.00000000E+00
  0.00000000E+00  0.00000000E+00  0.00000000E+00
  0.00000000E+00  0.00000000E+00  0.00000000E+00
  0.00000000E+00  0.00000000E+00  0.00000000E+00
  0.00000000E+00  0.00000000E+00  0.00000000E+00
  0.00000000E+00  0.00000000E+00  0.00000000E+00
  0.00000000E+00  0.00000000E+00  0.00000000E+00
  0.00000000E+00  0.00000000E+00  0.00000000E+00
