SYSTEM = Al2As2
PREC = Accurate
#ISPIN = 2

ISTART = 0
ICHARG = 2

ENCUT = 500
NELMIN = 5
NELM = 1000
ALGO = Normal
#LMAXMIX = 4
EDIFF = 0.00001

IBRION = 6
NFREE = 4
POTIM = 0.015
ISIF = 3
NSW = 1000
EDIFFG = -0.01

ISMEAR = 0
SIGMA = 0.02

GGA = PE

LWAVE = .FALSE.
LCHARG = .FALSE.
