Al1 As1                                 
   1.00000000000000     
     3.7977706201825252    0.0000000000000000    0.0000000000000000
    -1.8988853100912626    3.2889658348182356   -0.0000000000000000
     0.0000000000000000    0.0000000000000000    5.9545642884270382
   Al   As
     2     2
Direct
 -0.0000000000000000 -0.0000000000000000  0.0000000000000000
 -0.0000000000000000 -0.0000000000000000  0.5000000000000000
  0.3333333429999996  0.6666666870000029  0.2500000000000000
  0.6666666269999979  0.3333333129999971  0.7500000000000000
 
  0.00000000E+00  0.00000000E+00  0.00000000E+00
  0.00000000E+00  0.00000000E+00  0.00000000E+00
  0.00000000E+00  0.00000000E+00  0.00000000E+00
  0.00000000E+00  0.00000000E+00  0.00000000E+00
