system = TiO2
ENCUT = 600
ISTART = 1
ICHARG = 11
LREAL = .FALSE.
IBRION = -1
PREC = Accurate
NSW = 0
EDIFF = 0.1E-05
ISMEAR = 0
ISPIN = 2
LORBIT = 11
#EDIFFG = -0.03
GGA = PE
#ISIF = 3
SIGMA = 0.02
LCHARG = .FALSE.
LWAVE = .FALSE.
#LAECHG = .TRUE.
