Line_mode KPOINTS file
20
Line_mode
Reciprocal
0.0 0.0 0.0 ! G
0.0 0.0 0.5 ! X

0.0 0.0 0.5 ! X
-0.0790928267085 0.0790928267085 0.5 ! Y

-0.0790928267085 0.0790928267085 0.5 ! Y
-0.289546413354 0.289546413354 0.289546413354 ! S

-0.289546413354 0.289546413354 0.289546413354 ! S
0.0 0.0 0.0 ! G

0.0 0.0 0.0 ! G
0.5 0.5 -0.5 ! Z

0.5 0.5 -0.5 ! Z
0.289546413354 0.710453586646 -0.289546413354 ! W

0.289546413354 0.710453586646 -0.289546413354 ! W
0.0 0.5 0.0 ! N

0.0 0.5 0.0 ! N
0.25 0.25 0.25 ! P

0.25 0.25 0.25 ! P
0.5 0.5 -0.0790928267085 ! Q

0.5 0.5 -0.0790928267085 ! Q
0.5 0.5 -0.5 ! Z

0.0 0.0 0.5 ! X
0.25 0.25 0.25 ! P
