TiO2                                    
   1.00000000000000     
     3.8309874472693255    0.0000000000000000    0.0000000000000000
     0.0000000000000000    3.8309874472693255    0.0000000000000000
     0.0000000000000000    0.0000000000000000    9.6191462277540616
   O    Ti
     8     4
Direct
  0.0000000000000000  0.0000000000000000  0.2079915375029383
  0.5000000000000000  0.5000000000000000  0.7079915375029383
  0.0000000000000000  0.5000000000000000  0.4579915375029383
  0.5000000000000000  0.0000000000000000  0.9579915375029383
  0.5000000000000000 -0.0000000000000000  0.5420084624970617
 -0.0000000000000000  0.5000000000000000  0.0420084624970617
  0.5000000000000000  0.5000000000000000  0.2920084624970617
 -0.0000000000000000 -0.0000000000000000  0.7920084624970617
 -0.0000000000000000  0.0000000000000000 -0.0000000000000000
  0.5000000000000000  0.5000000000000000  0.5000000000000000
 -0.0000000000000000  0.5000000000000000  0.2500000000000000
  0.5000000000000000  0.0000000000000000  0.7500000000000000
 
  0.00000000E+00  0.00000000E+00  0.00000000E+00
  0.00000000E+00  0.00000000E+00  0.00000000E+00
  0.00000000E+00  0.00000000E+00  0.00000000E+00
  0.00000000E+00  0.00000000E+00  0.00000000E+00
  0.00000000E+00  0.00000000E+00  0.00000000E+00
  0.00000000E+00  0.00000000E+00  0.00000000E+00
  0.00000000E+00  0.00000000E+00  0.00000000E+00
  0.00000000E+00  0.00000000E+00  0.00000000E+00
  0.00000000E+00  0.00000000E+00  0.00000000E+00
  0.00000000E+00  0.00000000E+00  0.00000000E+00
  0.00000000E+00  0.00000000E+00  0.00000000E+00
  0.00000000E+00  0.00000000E+00  0.00000000E+00
