system                                  
   1.00000000000000     
     7.7092229998979125    0.0000000000000000    0.0000000000000000
     0.0000000000000005    7.7092229998979125    0.0000000000000000
     0.0000000000000006    0.0000000000000006    9.7051982141622020
   O    Ti   U 
    32    15     1
Direct
 -0.0000000000000000  0.0000000000000000  0.2185450352632154
 -0.0000000000000000  0.2523665193047677  0.4615500224276247
  0.2512326367787504  0.2515524371410884  0.7051433903615254
  0.2649223066597015  0.0000000000000000  0.9498568018997030
  0.0000000000000000  0.2649223066597016  0.0501431981002971
 -0.0000000000000000  0.0000000000000000  0.7814549647367847
  0.2523665193047677  0.0000000000000000  0.5384499775723754
  0.2515524371410884  0.2512326367787504  0.2948566096384747
  0.5000000000000000  0.0000000000000000  0.2064308830964724
  0.5000000000000000  0.2512189114120522  0.4588346334417749
  0.7487673632212494  0.2515524371410884  0.7051433903615254
  0.7350776933402984  0.0000000000000000  0.9498568018997030
  0.5000000000000000  0.2512718682526501  0.0451212055907214
  0.5000000000000000  0.0000000000000000  0.7804501752553494
  0.7476334806952324  0.0000000000000000  0.5384499775723754
  0.7484475628589118  0.2512326367787504  0.2948566096384747
 -0.0000000000000000  0.5000000000000000  0.2195498247446505
 -0.0000000000000000  0.7476334806952324  0.4615500224276247
  0.2512326367787504  0.7484475628589118  0.7051433903615254
  0.2512718682526501  0.5000000000000000  0.9548787944092786
 -0.0000000000000000  0.7350776933402984  0.0501431981002971
 -0.0000000000000000  0.5000000000000000  0.7935691169035278
  0.2512189114120522  0.5000000000000000  0.5411653665582247
  0.2515524371410884  0.7487673632212494  0.2948566096384747
  0.5000000000000000  0.5000000000000000  0.2078093402674086
  0.5000000000000000  0.7487810885879475  0.4588346334417749
  0.7487673632212494  0.7484475628589118  0.7051433903615254
  0.7487281317473498  0.5000000000000000  0.9548787944092786
  0.5000000000000000  0.7487281317473498  0.0451212055907214
  0.5000000000000000  0.5000000000000000  0.7921906597325916
  0.7487810885879475  0.5000000000000000  0.5411653665582247
  0.7484475628589118  0.7487673632212494  0.2948566096384747
 -0.0000000000000000  0.2603976066632189  0.2647696053612429
  0.2538454291100352  0.2538454291100352  0.5000000000000000
  0.2603976066632189  0.0000000000000000  0.7352303946387573
  0.5000000000000000  0.0000000000000000  0.0065630610009040
  0.5000000000000000  0.2528757062829277  0.2508023994172674
  0.7461545708899650  0.2538454291100352  0.5000000000000000
  0.7396023933367810  0.0000000000000000  0.7352303946387573
 -0.0000000000000000  0.5000000000000000 -0.0065630610009040
 -0.0000000000000000  0.7396023933367810  0.2647696053612429
  0.2538454291100352  0.7461545708899650  0.5000000000000000
  0.2528757062829277  0.5000000000000000  0.7491976005827327
  0.5000000000000000  0.5000000000000000  0.0000000000000000
  0.5000000000000000  0.7471242937170722  0.2508023994172674
  0.7461545708899650  0.7461545708899650  0.5000000000000000
  0.7471242937170722  0.5000000000000000  0.7491976005827327
 -0.0000000000000000  0.0000000000000000  0.0000000000000000
 
  0.00000000E+00  0.00000000E+00  0.00000000E+00
  0.00000000E+00  0.00000000E+00  0.00000000E+00
  0.00000000E+00  0.00000000E+00  0.00000000E+00
  0.00000000E+00  0.00000000E+00  0.00000000E+00
  0.00000000E+00  0.00000000E+00  0.00000000E+00
  0.00000000E+00  0.00000000E+00  0.00000000E+00
  0.00000000E+00  0.00000000E+00  0.00000000E+00
  0.00000000E+00  0.00000000E+00  0.00000000E+00
  0.00000000E+00  0.00000000E+00  0.00000000E+00
  0.00000000E+00  0.00000000E+00  0.00000000E+00
  0.00000000E+00  0.00000000E+00  0.00000000E+00
  0.00000000E+00  0.00000000E+00  0.00000000E+00
  0.00000000E+00  0.00000000E+00  0.00000000E+00
  0.00000000E+00  0.00000000E+00  0.00000000E+00
  0.00000000E+00  0.00000000E+00  0.00000000E+00
  0.00000000E+00  0.00000000E+00  0.00000000E+00
  0.00000000E+00  0.00000000E+00  0.00000000E+00
  0.00000000E+00  0.00000000E+00  0.00000000E+00
  0.00000000E+00  0.00000000E+00  0.00000000E+00
  0.00000000E+00  0.00000000E+00  0.00000000E+00
  0.00000000E+00  0.00000000E+00  0.00000000E+00
  0.00000000E+00  0.00000000E+00  0.00000000E+00
  0.00000000E+00  0.00000000E+00  0.00000000E+00
  0.00000000E+00  0.00000000E+00  0.00000000E+00
  0.00000000E+00  0.00000000E+00  0.00000000E+00
  0.00000000E+00  0.00000000E+00  0.00000000E+00
  0.00000000E+00  0.00000000E+00  0.00000000E+00
  0.00000000E+00  0.00000000E+00  0.00000000E+00
  0.00000000E+00  0.00000000E+00  0.00000000E+00
  0.00000000E+00  0.00000000E+00  0.00000000E+00
  0.00000000E+00  0.00000000E+00  0.00000000E+00
  0.00000000E+00  0.00000000E+00  0.00000000E+00
  0.00000000E+00  0.00000000E+00  0.00000000E+00
  0.00000000E+00  0.00000000E+00  0.00000000E+00
  0.00000000E+00  0.00000000E+00  0.00000000E+00
  0.00000000E+00  0.00000000E+00  0.00000000E+00
  0.00000000E+00  0.00000000E+00  0.00000000E+00
  0.00000000E+00  0.00000000E+00  0.00000000E+00
  0.00000000E+00  0.00000000E+00  0.00000000E+00
  0.00000000E+00  0.00000000E+00  0.00000000E+00
  0.00000000E+00  0.00000000E+00  0.00000000E+00
  0.00000000E+00  0.00000000E+00  0.00000000E+00
  0.00000000E+00  0.00000000E+00  0.00000000E+00
  0.00000000E+00  0.00000000E+00  0.00000000E+00
  0.00000000E+00  0.00000000E+00  0.00000000E+00
  0.00000000E+00  0.00000000E+00  0.00000000E+00
  0.00000000E+00  0.00000000E+00  0.00000000E+00
  0.00000000E+00  0.00000000E+00  0.00000000E+00
