# Basic
PREC = Accurate
ISPIN = 2

# Initialization
ISTART = 0
ICHARG = 2

# Electronic relaxation
ENCUT = 500
NELMIN = 5
NELM = 100
ALGO = Normal
LMAXMIX = 4
EDIFF = 1E-05

# Ionic relaxation
IBRION = 2
ISIF = 3
NSW = 200
EDIFFG = -0.03

# Density of states related
ISMEAR = 0
SIGMA = 0.2

# Output
LCHARG = .FALSE.
LWAVE = .FALSE.
