system
   1.0
    7.5684000000000000    0.0000000000000000    0.0000000000000000
    0.0000000000000005    7.5684000000000000    0.0000000000000000
    0.0000000000000006    0.0000000000000006    9.5146000000000000
    O   Ti    U
   32   15    1
direct
  0.0000000000000000  0.0000000000000000  0.2081000000000000      O
  0.0000000000000000  0.2500000000000000  0.4581000000000000      O
  0.2500000000000000  0.2500000000000000  0.7081000000000000      O
  0.2500000000000000  0.0000000000000000  0.9581000000000000      O
  0.0000000000000000  0.2500000000000000  0.0419000000000000      O
  0.0000000000000000  0.0000000000000000  0.7919000000000000      O
  0.2500000000000000  0.0000000000000000  0.5419000000000000      O
  0.2500000000000000  0.2500000000000000  0.2919000000000000      O
  0.5000000000000000  0.0000000000000000  0.2081000000000000      O
  0.5000000000000000  0.2500000000000000  0.4581000000000000      O
  0.7500000000000000  0.2500000000000000  0.7081000000000000      O
  0.7500000000000000  0.0000000000000000  0.9581000000000000      O
  0.5000000000000000  0.2500000000000000  0.0419000000000000      O
  0.5000000000000000  0.0000000000000000  0.7919000000000000      O
  0.7500000000000000  0.0000000000000000  0.5419000000000000      O
  0.7500000000000000  0.2500000000000000  0.2919000000000000      O
  0.0000000000000000  0.5000000000000000  0.2081000000000000      O
  0.0000000000000000  0.7500000000000000  0.4581000000000000      O
  0.2500000000000000  0.7500000000000000  0.7081000000000000      O
  0.2500000000000000  0.5000000000000000  0.9581000000000000      O
  0.0000000000000000  0.7500000000000000  0.0419000000000000      O
  0.0000000000000000  0.5000000000000000  0.7919000000000000      O
  0.2500000000000000  0.5000000000000000  0.5419000000000000      O
  0.2500000000000000  0.7500000000000000  0.2919000000000000      O
  0.5000000000000000  0.5000000000000000  0.2081000000000000      O
  0.5000000000000000  0.7500000000000000  0.4581000000000000      O
  0.7500000000000000  0.7500000000000000  0.7081000000000000      O
  0.7500000000000000  0.5000000000000000  0.9581000000000000      O
  0.5000000000000000  0.7500000000000000  0.0419000000000000      O
  0.5000000000000000  0.5000000000000000  0.7919000000000000      O
  0.7500000000000000  0.5000000000000000  0.5419000000000000      O
  0.7500000000000000  0.7500000000000000  0.2919000000000000      O
  0.0000000000000000  0.2500000000000000  0.2500000000000000     Ti
  0.2500000000000000  0.2500000000000000  0.5000000000000000     Ti
  0.2500000000000000  0.0000000000000000  0.7500000000000000     Ti
  0.5000000000000000  0.0000000000000000  0.0000000000000000     Ti
  0.5000000000000000  0.2500000000000000  0.2500000000000000     Ti
  0.7500000000000000  0.2500000000000000  0.5000000000000000     Ti
  0.7500000000000000  0.0000000000000000  0.7500000000000000     Ti
  0.0000000000000000  0.5000000000000000  0.0000000000000000     Ti
  0.0000000000000000  0.7500000000000000  0.2500000000000000     Ti
  0.2500000000000000  0.7500000000000000  0.5000000000000000     Ti
  0.2500000000000000  0.5000000000000000  0.7500000000000000     Ti
  0.5000000000000000  0.5000000000000000  0.0000000000000000     Ti
  0.5000000000000000  0.7500000000000000  0.2500000000000000     Ti
  0.7500000000000000  0.7500000000000000  0.5000000000000000     Ti
  0.7500000000000000  0.5000000000000000  0.7500000000000000     Ti
  0.0000000000000000  0.0000000000000000  0.0000000000000000      U
